(set-logic QF_S)
(declare-fun V36 () String )
(declare-fun V31 () String )
(declare-fun V30 () String )
(declare-fun V1 () String )
(declare-fun V14 () String )
(declare-fun V8 () String )
(declare-fun V22 () String )
(declare-fun V12 () String )
(declare-fun V35 () String )
(declare-fun V34 () String )
(declare-fun V27 () String )
(declare-fun V16 () String )
(declare-fun V29 () String )
(declare-fun V33 () String )
(declare-fun V11 () String )
(declare-fun V4 () String )
(declare-fun V21 () String )
(declare-fun V32 () String )
(declare-fun V10 () String )
(declare-fun V18 () String )
(declare-fun V9 () String )
(declare-fun V13 () String )
(declare-fun V23 () String )
(declare-fun V24 () String )
(declare-fun V28 () String )
(declare-fun V25 () String )
(declare-fun V26 () String )
(declare-fun V17 () String )
(declare-fun V5 () String )
(assert (= (str.++ V10 V11 ) (str.++ V4 V5 ) ) )
(assert (= (str.++ V10 V11 ) (str.++ V8 V9 ) ) )
(assert (= (str.++ V10 V11 ) (str.++ (str.++ V35 "W" ) V36 ) ) )
(assert (= (str.++ V10 V11 ) (str.++ (str.++ V31 "Z" ) V32 ) ) )
(assert (= (str.++ V10 V11 ) (str.++ (str.++ V33 "W" ) V34 ) ) )
(assert (= (str.++ V10 V11 ) (str.++ (str.++ V29 "Z" ) V30 ) ) )
(assert (= (str.++ V10 V11 ) (str.++ (str.++ V25 "/" ) V26 ) ) )
(assert (= (str.++ V10 V11 ) (str.++ (str.++ V27 "/" ) V28 ) ) )
(assert (= (str.++ (str.++ V23 "," ) V24 ) (str.++ (str.++ V1 V10 ) V11 ) ) )
(assert (= (str.++ (str.++ V23 "," ) V24 ) (str.++ (str.++ (str.++ V16 V17 ) V18 ) V22 ) ) )
(assert (= (str.++ (str.++ V23 "," ) V24 ) (str.++ (str.++ (str.++ V21 V12 ) V13 ) V14 ) ) )
( check-sat )
